MARKOV
228
 2 2 2 2 2 2 2 2 2 2 2 2 2 2 2 2 2 2 2 2 2 2 2 2 2 2 2 2 2 2 2 2 2 2 2 2 2 2 2 2 2 2 2 2 2 2 2 2 2 2 2 2 2 2 2 2 2 2 2 2 2 2 2 2 2 2 2 2 2 2 2 2 2 2 2 2 2 2 2 2 2 2 2 2 2 2 2 2 2 2 2 2 2 2 2 2 2 2 2 2 2 2 2 2 2 2 2 2 2 2 2 2 2 2 2 2 2 2 2 2 2 2 2 2 2 2 2 2 2 2 2 2 2 2 2 2 2 2 2 2 2 2 2 2 2 2 2 2 2 2 2 2 2 2 2 2 2 2 2 2 2 2 2 2 2 2 2 2 2 2 2 2 2 2 2 2 2 2 2 2 2 2 2 2 2 2 2 2 2 2 2 2 2 2 2 2 2 2 2 2 2 2 2 2 2 2 2 2 2 2 2 2 2 2 2 2 2 2 2 2 2 2 2 2 2 2 2 2
851
1	0 
1	1 
1	2 
1	3 
1	4 
1	5 
1	6 
1	7 
1	8 
1	9 
1	10 
1	11 
1	12 
1	13 
1	14 
1	15 
1	16 
1	17 
1	18 
1	19 
1	20 
1	21 
1	22 
1	23 
1	24 
1	25 
1	26 
1	27 
1	28 
1	29 
1	30 
1	31 
1	32 
1	33 
1	34 
1	35 
1	36 
1	37 
1	38 
1	39 
1	40 
1	41 
1	42 
1	43 
1	44 
1	45 
1	46 
1	47 
1	48 
1	49 
1	50 
1	51 
1	52 
1	53 
1	54 
1	55 
1	56 
1	57 
1	58 
1	59 
1	60 
1	61 
1	62 
1	63 
1	64 
1	65 
1	66 
1	67 
1	68 
1	69 
1	70 
1	71 
1	72 
1	73 
1	74 
1	75 
1	76 
1	77 
1	78 
1	79 
1	80 
1	81 
1	82 
1	83 
1	84 
1	85 
1	86 
1	87 
1	88 
1	89 
1	90 
1	91 
1	92 
1	93 
1	94 
1	95 
1	96 
1	97 
1	98 
1	99 
1	100 
1	101 
1	102 
1	103 
1	104 
1	105 
1	106 
1	107 
1	108 
1	109 
1	110 
1	111 
1	112 
1	113 
1	114 
1	115 
1	116 
1	117 
1	118 
1	119 
1	120 
1	121 
1	122 
1	123 
1	124 
1	125 
1	126 
1	127 
1	128 
1	129 
1	130 
1	131 
1	132 
1	133 
1	134 
1	135 
1	136 
1	137 
1	138 
1	139 
1	140 
1	141 
1	142 
1	143 
1	144 
1	145 
1	146 
1	147 
1	148 
1	149 
1	150 
1	151 
1	152 
1	153 
1	154 
1	155 
1	156 
1	157 
1	158 
1	159 
1	160 
1	161 
1	162 
1	163 
1	164 
1	165 
1	166 
1	167 
1	168 
1	169 
1	170 
1	171 
1	172 
1	173 
1	174 
1	175 
1	176 
1	177 
1	178 
1	179 
1	180 
1	181 
1	182 
1	183 
1	184 
1	185 
1	186 
1	187 
1	188 
1	189 
1	190 
1	191 
1	192 
1	193 
1	194 
1	195 
1	196 
1	197 
1	198 
1	199 
1	200 
1	201 
1	202 
1	203 
1	204 
1	205 
1	206 
1	207 
1	208 
1	209 
1	210 
1	211 
1	212 
1	213 
1	214 
1	215 
1	216 
1	217 
1	218 
1	219 
1	220 
1	221 
1	222 
1	223 
1	224 
1	225 
1	226 
1	227 
2	1 2 
2	1 5 
2	1 8 
2	1 10 
2	1 134 
2	1 137 
2	2 4 
2	2 5 
2	2 108 
2	2 136 
2	2 137 
2	3 4 
2	3 5 
2	3 7 
2	3 109 
2	4 5 
2	4 107 
2	4 109 
2	5 7 
2	5 8 
2	6 7 
2	6 9 
2	6 12 
2	6 14 
2	7 8 
2	7 9 
2	8 9 
2	8 10 
2	8 11 
2	9 11 
2	9 14 
2	10 11 
2	10 134 
2	10 219 
2	10 220 
2	11 14 
2	11 218 
2	11 220 
2	12 13 
2	12 14 
2	12 30 
2	13 14 
2	13 27 
2	13 30 
2	13 173 
2	13 218 
2	14 218 
2	15 17 
2	15 18 
2	15 19 
2	16 17 
2	16 18 
2	16 32 
2	16 36 
2	16 50 
2	16 54 
2	16 87 
2	17 18 
2	17 19 
2	17 36 
2	17 175 
2	18 54 
2	18 55 
2	19 175 
2	19 176 
2	20 21 
2	20 23 
2	20 44 
2	20 76 
2	20 168 
2	20 170 
2	20 214 
2	21 22 
2	21 23 
2	21 25 
2	21 170 
2	21 171 
2	22 24 
2	22 25 
2	22 171 
2	22 198 
2	22 200 
2	23 25 
2	23 150 
2	23 168 
2	23 169 
2	24 25 
2	24 148 
2	24 197 
2	24 200 
2	25 148 
2	25 150 
2	26 27 
2	26 28 
2	26 29 
2	26 30 
2	26 174 
2	27 30 
2	27 173 
2	27 174 
2	28 29 
2	29 172 
2	29 174 
2	31 32 
2	31 33 
2	31 35 
2	31 36 
2	31 177 
2	31 178 
2	32 33 
2	32 36 
2	32 87 
2	33 34 
2	33 35 
2	33 83 
2	33 87 
2	34 35 
2	34 82 
2	34 83 
2	34 190 
2	34 191 
2	35 68 
2	35 177 
2	35 191 
2	35 192 
2	36 175 
2	36 178 
2	37 38 
2	37 99 
2	37 150 
2	37 169 
2	37 179 
2	37 216 
2	38 113 
2	38 114 
2	38 179 
2	38 180 
2	38 216 
2	38 217 
2	39 40 
2	39 41 
2	39 42 
2	39 49 
2	39 205 
2	40 41 
2	40 42 
2	41 47 
2	41 49 
2	42 205 
2	42 207 
2	43 44 
2	43 60 
2	43 76 
2	43 77 
2	43 120 
2	43 214 
2	44 76 
2	44 214 
2	45 46 
2	45 61 
2	45 64 
2	45 65 
2	45 111 
2	45 123 
2	45 125 
2	45 189 
2	46 64 
2	46 125 
2	46 126 
2	47 48 
2	47 49 
2	47 53 
2	48 49 
2	48 52 
2	48 53 
2	48 187 
2	49 187 
2	49 204 
2	49 205 
2	50 51 
2	50 54 
2	50 85 
2	50 87 
2	50 186 
2	51 52 
2	51 54 
2	51 186 
2	51 188 
2	52 53 
2	52 54 
2	52 55 
2	52 187 
2	52 188 
2	53 55 
2	54 55 
2	56 57 
2	56 58 
2	56 99 
2	56 149 
2	56 216 
2	57 99 
2	57 147 
2	57 149 
2	58 149 
2	58 201 
2	58 202 
2	58 216 
2	58 217 
2	59 60 
2	59 78 
2	59 96 
2	59 97 
2	59 215 
2	60 78 
2	60 79 
2	60 120 
2	60 214 
2	60 215 
2	61 62 
2	61 65 
2	61 189 
2	61 193 
2	62 63 
2	62 65 
2	62 66 
2	62 193 
2	63 64 
2	63 65 
2	63 67 
2	64 65 
2	66 67 
2	66 68 
2	66 155 
2	66 164 
2	66 192 
2	66 193 
2	67 161 
2	67 164 
2	68 155 
2	68 177 
2	68 192 
2	69 70 
2	69 73 
2	69 126 
2	70 72 
2	70 73 
2	70 74 
2	70 124 
2	70 126 
2	71 73 
2	71 74 
2	71 88 
2	71 181 
2	72 74 
2	72 92 
2	72 124 
2	72 201 
2	72 202 
2	73 74 
2	74 88 
2	74 90 
2	74 92 
2	75 76 
2	75 77 
2	75 115 
2	75 116 
2	75 179 
2	75 180 
2	76 77 
2	76 168 
2	76 179 
2	77 115 
2	77 117 
2	77 120 
2	78 79 
2	78 96 
2	78 118 
2	79 118 
2	79 119 
2	79 120 
2	80 81 
2	80 84 
2	80 86 
2	80 148 
2	80 194 
2	81 84 
2	81 147 
2	81 148 
2	81 150 
2	82 83 
2	82 84 
2	82 110 
2	82 147 
2	82 190 
2	83 84 
2	83 85 
2	83 86 
2	83 87 
2	84 86 
2	84 147 
2	85 86 
2	85 87 
2	85 186 
2	85 195 
2	86 194 
2	86 195 
2	87 186 
2	88 90 
2	88 181 
2	88 185 
2	89 90 
2	89 91 
2	89 92 
2	89 114 
2	89 130 
2	90 91 
2	90 92 
2	90 185 
2	91 129 
2	91 130 
2	91 139 
2	91 185 
2	92 114 
2	92 202 
2	93 94 
2	93 95 
2	93 97 
2	93 223 
2	94 97 
2	94 213 
2	94 215 
2	94 223 
2	95 96 
2	95 97 
2	95 98 
2	96 97 
2	96 98 
2	96 118 
2	96 145 
2	96 151 
2	97 215 
2	98 143 
2	98 145 
2	99 147 
2	99 150 
2	99 216 
2	100 101 
2	100 103 
2	100 104 
2	100 109 
2	101 102 
2	101 103 
2	101 104 
2	101 167 
2	102 104 
2	102 105 
2	102 106 
2	102 165 
2	102 166 
2	102 167 
2	103 167 
2	104 105 
2	104 107 
2	104 108 
2	104 109 
2	105 106 
2	105 108 
2	105 136 
2	105 138 
2	106 138 
2	106 140 
2	106 166 
2	106 184 
2	107 108 
2	107 109 
2	108 136 
2	110 112 
2	110 147 
2	110 149 
2	110 189 
2	110 190 
2	111 112 
2	111 123 
2	111 189 
2	112 123 
2	112 149 
2	112 189 
2	113 114 
2	113 116 
2	113 130 
2	113 131 
2	113 180 
2	114 130 
2	114 202 
2	114 217 
2	115 116 
2	115 117 
2	115 131 
2	115 133 
2	116 131 
2	116 180 
2	117 119 
2	117 120 
2	117 133 
2	117 152 
2	117 222 
2	118 119 
2	118 151 
2	119 120 
2	119 151 
2	119 152 
2	121 122 
2	121 198 
2	121 200 
2	121 209 
2	121 210 
2	121 224 
2	121 226 
2	121 227 
2	122 210 
2	122 212 
2	122 227 
2	123 124 
2	123 125 
2	123 149 
2	123 201 
2	124 125 
2	124 126 
2	124 201 
2	125 126 
2	127 128 
2	127 129 
2	127 132 
2	127 134 
2	127 135 
2	127 137 
2	128 129 
2	128 130 
2	128 131 
2	128 132 
2	128 133 
2	129 130 
2	129 135 
2	129 139 
2	130 131 
2	131 133 
2	132 133 
2	132 134 
2	132 222 
2	133 222 
2	134 137 
2	134 219 
2	135 136 
2	135 137 
2	135 138 
2	135 139 
2	136 137 
2	136 138 
2	138 139 
2	138 140 
2	139 140 
2	139 185 
2	140 184 
2	140 185 
2	141 143 
2	141 146 
2	141 172 
2	142 144 
2	142 146 
2	142 154 
2	142 173 
2	142 174 
2	143 144 
2	143 145 
2	143 146 
2	144 145 
2	144 146 
2	144 151 
2	144 154 
2	145 151 
2	146 172 
2	146 174 
2	147 149 
2	147 150 
2	148 150 
2	148 194 
2	148 197 
2	149 201 
2	150 169 
2	151 152 
2	151 153 
2	151 154 
2	152 153 
2	152 219 
2	152 222 
2	153 154 
2	153 219 
2	153 220 
2	153 221 
2	154 173 
2	154 221 
2	155 158 
2	155 164 
2	155 177 
2	156 157 
2	156 158 
2	156 176 
2	157 158 
2	157 160 
2	157 162 
2	158 160 
2	158 164 
2	158 176 
2	158 177 
2	158 178 
2	159 160 
2	159 162 
2	159 163 
2	160 162 
2	160 163 
2	160 164 
2	161 163 
2	161 164 
2	163 164 
2	165 166 
2	165 167 
2	165 182 
2	166 182 
2	166 184 
2	168 169 
2	168 179 
2	169 179 
2	170 171 
2	170 213 
2	170 214 
2	171 198 
2	171 199 
2	171 213 
2	172 174 
2	173 174 
2	173 218 
2	173 221 
2	175 176 
2	175 178 
2	176 178 
2	177 178 
2	179 180 
2	181 183 
2	181 185 
2	182 183 
2	182 184 
2	183 184 
2	183 185 
2	184 185 
2	186 188 
2	186 195 
2	186 203 
2	187 188 
2	187 204 
2	187 206 
2	188 203 
2	188 206 
2	189 190 
2	189 191 
2	189 193 
2	190 191 
2	191 192 
2	191 193 
2	192 193 
2	194 195 
2	194 196 
2	194 197 
2	195 196 
2	195 203 
2	196 197 
2	196 203 
2	197 200 
2	197 203 
2	197 208 
2	197 209 
2	198 199 
2	198 200 
2	198 226 
2	199 213 
2	199 225 
2	199 226 
2	200 209 
2	201 202 
2	202 217 
2	203 206 
2	203 208 
2	204 205 
2	204 206 
2	204 207 
2	204 211 
2	204 212 
2	205 207 
2	206 208 
2	206 211 
2	207 212 
2	208 209 
2	208 210 
2	208 211 
2	209 210 
2	210 211 
2	210 212 
2	211 212 
2	213 214 
2	213 215 
2	213 223 
2	213 225 
2	214 215 
2	216 217 
2	218 220 
2	218 221 
2	219 220 
2	219 222 
2	220 221 
2	223 225 
2	224 226 
2	224 227 
2	225 226 
0	

2
 0.252912 1
2
 1 0.112688
2
 1 0.115925
2
 1 0.047517
2
 1 0.0501578
2
 1 0.0620496
2
 1 0.0409883
2
 1 0.034572
2
 1 0.066328
2
 1 0.0526321
2
 1 0.16369
2
 1 0.09342
2
 1 0.0264028
2
 1 0.0231539
2
 1 0.0551741
2
 1 0.129385
2
 1 0.461719
2
 1 0.450274
2
 1 0.194616
2
 0.981072 1
2
 1 0.579393
2
 1 0.129648
2
 1 0.138821
2
 1 0.719029
2
 1 0.737873
2
 1 0.255683
2
 1 0.0153657
2
 1 0.0248168
2
 1 0.0171808
2
 1 0.0298773
2
 1 0.0509955
2
 1 0.0723661
2
 1 0.093583
2
 1 0.115817
2
 1 0.166637
2
 1 0.0889434
2
 1 0.202882
2
 0.166198 1
2
 0.0882389 1
2
 1 0.0631425
2
 1 0.0573826
2
 1 0.0628411
2
 1 0.0481234
2
 0.232552 1
2
 0.301431 1
2
 0.154292 1
2
 0.343732 1
2
 1 0.0484356
2
 1 0.0423909
2
 1 0.0317579
2
 1 0.135536
2
 1 0.10573
2
 1 0.0522319
2
 1 0.0393711
2
 1 0.103272
2
 1 0.0395023
2
 0.159692 1
2
 0.0194782 1
2
 0.0101185 1
2
 0.475015 1
2
 0.785008 1
2
 1 0.377663
2
 1 0.0748612
2
 1 0.0323324
2
 1 0.14544
2
 1 0.118222
2
 1 0.0652321
2
 1 0.0317823
2
 1 0.0413675
2
 1 0.787591
2
 0.507844 1
2
 0.246278 1
2
 0.240821 1
2
 0.38659 1
2
 0.342433 1
2
 0.0489164 1
2
 0.0607762 1
2
 0.0472452 1
2
 0.127259 1
2
 0.138473 1
2
 1 0.196982
2
 0.873236 1
2
 0.802947 1
2
 1 0.233584
2
 0.898812 1
2
 1 0.209735
2
 1 0.194081
2
 1 0.719437
2
 0.148274 1
2
 1 0.714184
2
 0.380584 1
2
 0.166891 1
2
 0.61617 1
2
 1 0.0336069
2
 1 0.242594
2
 1 0.0480844
2
 0.658931 1
2
 1 0.58966
2
 1 0.0526528
2
 0.0316618 1
2
 1 0.039559
2
 1 0.0532458
2
 1 0.0430984
2
 1 0.063835
2
 1 0.0324117
2
 1 0.0392541
2
 1 0.0788148
2
 1 0.0279216
2
 1 0.0480733
2
 1 0.0184524
2
 0.141032 1
2
 0.150012 1
2
 0.18455 1
2
 0.00135668 1
2
 0.138968 1
2
 0.201575 1
2
 0.0444627 1
2
 0.0477292 1
2
 0.375455 1
2
 0.160819 1
2
 0.109914 1
2
 1 0.157067
2
 1 0.234092
2
 0.16089 1
2
 0.418292 1
2
 0.523369 1
2
 0.332861 1
2
 1 0.165201
2
 1 0.204523
2
 1 0.353043
2
 1 0.460977
2
 1 0.30727
2
 1 0.147068
2
 1 0.214309
2
 1 0.0863138
2
 1 0.188782
2
 1 0.190118
2
 1 0.116966
2
 1 0.129089
2
 1 0.318078
2
 1 0.134071
2
 1 0.0437445
2
 1 0.0478657
2
 1 0.0335025
2
 1 0.036489
2
 1 0.308831
2
 1 0.0659709
2
 0.0478784 1
2
 0.110607 1
2
 0.0293008 1
2
 0.0360793 1
2
 1 0.0769637
2
 1 0.0832451
2
 1 0.0994802
2
 1 0.230946
2
 1 0.0622859
2
 1 0.0447654
2
 1 0.0528516
2
 1 0.0331814
2
 1 0.0295269
2
 1 0.033881
2
 1 0.023281
2
 1 0.0350833
2
 1 0.0272091
2
 1 0.0517542
2
 1 0.0953762
2
 1 0.465614
2
 1 0.226306
2
 0.156688 1
2
 0.0607115 1
2
 1 0.132825
2
 1 0.801093
2
 1 0.0354069
2
 1 0.0367372
2
 1 0.0198599
2
 1 0.057254
2
 1 0.0713866
2
 1 0.0567022
2
 1 0.0555338
2
 0.118478 1
2
 0.0580638 1
2
 1 0.207702
2
 1 0.0483865
2
 1 0.0425752
2
 1 0.252021
2
 1 0.207122
2
 1 0.26521
2
 1 0.0633578
2
 1 0.126251
2
 1 0.323158
2
 1 0.268948
2
 1 0.14436
2
 1 0.0650987
2
 1 0.133323
2
 1 0.264849
2
 1 0.0879995
2
 1 0.305
2
 0.218196 1
2
 0.365078 1
2
 0.440716 1
2
 0.177614 1
2
 0.0543663 1
2
 0.0706152 1
2
 1 0.181774
2
 1 0.0246829
2
 1 0.0407203
2
 1 0.0269963
2
 1 0.0552368
2
 1 0.0999437
2
 1 0.0789684
2
 1 0.0347944
2
 1 0.0423151
2
 1 0.0482
2
 0.185655 1
2
 1 0.924863
2
 0.357522 1
2
 0.135248 1
2
 0.0777852 1
2
 1 0.123848
2
 1 0.138657
2
 1 0.0475787
2
 1 0.097625
2
 1 0.210767
2
 1 0.189209
2
 1 0.18906
2
 1 0.232117
2
 1 0.138138
2
 1 0.0908147
4
 0.963932 0.257197 0.257197 1
4
 0.966697 0.257721 0.257721 1
4
 0.971213 0.260809 0.260809 1
4
 0.974381 0.264387 0.264387 1
4
 0.971867 0.264464 0.264464 1
4
 0.967239 0.26109 0.26109 1
4
 0.95746 0.251071 0.251071 1
4
 0.961284 0.253932 0.253932 1
4
 0.953221 0.249806 0.249806 1
4
 0.956921 0.253684 0.253684 1
4
 0.961823 0.257251 0.257251 1
4
 0.956869 0.247716 0.247716 1
4
 0.960691 0.25054 0.25054 1
4
 0.962582 0.250022 0.250022 1
4
 0.951191 0.242989 0.242989 1
4
 0.960206 0.251582 0.251582 1
4
 0.952099 0.246145 0.246145 1
4
 0.95071 0.244 0.244 1
4
 0.965938 0.253924 0.253924 1
4
 0.968545 0.257498 0.257498 1
4
 0.972852 0.256226 0.256226 1
4
 0.977341 0.260041 0.260041 1
4
 0.983397 0.262511 0.262511 1
4
 0.982734 0.263676 0.263676 1
4
 0.970451 0.256966 0.256966 1
4
 0.972305 0.257172 0.257172 1
4
 0.974929 0.260792 0.260792 1
4
 0.976243 0.264158 0.264158 1
4
 0.979153 0.264943 0.264943 1
4
 0.981024 0.265155 0.265155 1
4
 0.982182 0.26465 0.26465 1
4
 0.982347 0.268577 0.268577 1
4
 0.9769 0.26786 0.26786 1
4
 0.982732 0.271256 0.271256 1
4
 0.985883 0.272114 0.272114 1
4
 0.986438 0.268861 0.268861 1
4
 0.992271 0.273508 0.273508 1
4
 0.988822 0.272922 0.272922 1
4
 0.992662 0.269413 0.269413 1
4
 0.988268 0.267164 0.267164 1
4
 0.9959 0.270391 0.270391 1
4
 0.991993 0.270608 0.270608 1
4
 1 0.276384 0.276384 0.997542
4
 0.999654 0.273877 0.273877 1
4
 1 0.278188 0.278188 0.996423
4
 0.997859 0.275285 0.275285 1
4
 0.993442 0.272987 0.272987 1
4
 0.999247 0.332894 0.332894 1
4
 1 0.337291 0.337291 0.994033
4
 0.995215 0.33119 0.33119 1
4
 1 0.331147 0.331147 0.999518
4
 1 0.335269 0.335269 0.992806
4
 0.999922 0.327578 0.327578 1
4
 0.998126 0.327621 0.327621 1
4
 1 0.331514 0.331514 0.992749
4
 1 0.334339 0.334339 0.990912
4
 1 0.328539 0.328539 0.996714
4
 1 0.335009 0.335009 0.9961
4
 0.99315 0.328268 0.328268 1
4
 0.994825 0.326284 0.326284 1
4
 0.992147 0.325532 0.325532 1
4
 1 0.338239 0.338239 0.987524
4
 1 0.341614 0.341614 0.984147
4
 0.988143 0.323867 0.323867 1
4
 0.984598 0.322334 0.322334 1
4
 1 0.309136 0.309136 0.987961
4
 1 0.307193 0.307193 0.993357
4
 1 0.30425 0.30425 0.993077
4
 1 0.302052 0.302052 0.997716
4
 1 0.303681 0.303681 0.997437
4
 1 0.308996 0.308996 0.984859
4
 1 0.3068 0.3068 0.987406
4
 1 0.315305 0.315305 0.980556
4
 1 0.310335 0.310335 0.988794
4
 1 0.31294 0.31294 0.986077
4
 1 0.312156 0.312156 0.980335
4
 1 0.314796 0.314796 0.978081
4
 1 0.318725 0.318725 0.980226
4
 1 0.315953 0.315953 0.983203
4
 1 0.317828 0.317828 0.97523
4
 1 0.321767 0.321767 0.971132
4
 1 0.322023 0.322023 0.973698
4
 1 0.310974 0.310974 0.991463
4
 1 0.30719 0.30719 0.999063
4
 1 0.30486 0.30486 0.998278
4
 1 0.305648 0.305648 0.998839
4
 1 0.316334 0.316334 0.985746
4
 1 0.317313 0.317313 0.986909
4
 1 0.322283 0.322283 0.979182
4
 1 0.322411 0.322411 0.976217
4
 1 0.314553 0.314553 0.989906
4
 1 0.309769 0.309769 0.996319
4
 1 0.279354 0.279354 0.987898
4
 1 0.281329 0.281329 0.979062
4
 1 0.282944 0.282944 0.978293
4
 1 0.276916 0.276916 0.990676
4
 1 0.28309 0.28309 0.981816
4
 1 0.276485 0.276485 0.994298
4
 1 0.28074 0.28074 0.990398
4
 1 0.282649 0.282649 0.985406
4
 1 0.2845 0.2845 0.973088
4
 1 0.288119 0.288119 0.971179
4
 1 0.286281 0.286281 0.975825
4
 0.9902 0.318149 0.318149 1
4
 0.986815 0.313929 0.313929 1
4
 0.980738 0.309423 0.309423 1
4
 0.988422 0.31819 0.31819 1
4
 0.978702 0.309775 0.309775 1
4
 0.981398 0.313236 0.313236 1
4
 0.99265 0.318292 0.318292 1
4
 0.994267 0.322612 0.322612 1
4
 0.999417 0.324583 0.324583 1
4
 0.986428 0.310312 0.310312 1
4
 0.983165 0.309562 0.309562 1
4
 0.992818 0.315564 0.315564 1
4
 0.996 0.320278 0.320278 1
4
 0.980353 0.305857 0.305857 1
4
 0.986096 0.306879 0.306879 1
4
 0.989979 0.311788 0.311788 1
4
 0.980905 0.302706 0.302706 1
4
 0.978539 0.302207 0.302207 1
4
 0.971312 0.301298 0.301298 1
4
 0.975082 0.305466 0.305466 1
4
 0.975302 0.301476 0.301476 1
4
 0.973278 0.301317 0.301317 1
4
 0.98981 0.32191 0.32191 1
4
 0.985429 0.31763 0.31763 1
4
 0.981955 0.290009 0.290009 1
4
 0.985656 0.29522 0.29522 1
4
 0.991484 0.299822 0.299822 1
4
 0.991707 0.298384 0.298384 1
4
 0.987374 0.293573 0.293573 1
4
 0.981349 0.290945 0.290945 1
4
 0.975252 0.281896 0.281896 1
4
 0.971481 0.27991 0.27991 1
4
 0.982397 0.288673 0.288673 1
4
 0.979643 0.285827 0.285827 1
4
 0.976402 0.286089 0.286089 1
4
 0.973173 0.283028 0.283028 1
4
 1 0.36038 0.36038 0.943085
4
 1 0.358104 0.358104 0.948023
4
 1 0.357276 0.357276 0.943773
4
 1 0.354143 0.354143 0.951649
4
 1 0.354585 0.354585 0.948874
4
 1 0.360939 0.360939 0.945046
4
 1 0.360104 0.360104 0.94081
4
 1 0.355946 0.355946 0.954915
4
 1 0.354692 0.354692 0.953628
4
 1 0.354314 0.354314 0.946586
4
 1 0.354188 0.354188 0.944249
4
 1 0.301487 0.301487 0.993411
4
 1 0.301909 0.301909 0.988681
4
 1 0.29931 0.29931 0.998052
4
 1 0.296155 0.296155 0.999734
4
 1 0.297477 0.297477 0.995924
4
 1 0.304014 0.304014 0.987738
4
 1 0.300319 0.300319 0.998276
4
 1 0.30504 0.30504 0.98796
4
 0.944158 0.271341 0.271341 1
4
 0.952946 0.279611 0.279611 1
4
 0.94437 0.273209 0.273209 1
4
 0.948249 0.27658 0.27658 1
4
 0.954178 0.278872 0.278872 1
4
 0.951663 0.276048 0.276048 1
4
 0.947185 0.272653 0.272653 1
4
 0.957559 0.282413 0.282413 1
4
 0.940085 0.269326 0.269326 1
4
 0.942887 0.268778 0.268778 1
4
 0.939083 0.265183 0.265183 1
4
 1 0.349598 0.349598 0.962775
4
 1 0.352009 0.352009 0.958568
4
 1 0.351143 0.351143 0.964399
4
 1 0.348366 0.348366 0.961478
4
 1 0.344325 0.344325 0.969883
4
 1 0.34751 0.34751 0.967327
4
 1 0.344006 0.344006 0.966458
4
 1 0.346379 0.346379 0.962234
4
 1 0.34801 0.34801 0.957437
4
 1 0.351207 0.351207 0.954485
4
 1 0.334185 0.334185 0.984865
4
 1 0.334451 0.334451 0.987467
4
 1 0.328408 0.328408 0.991077
4
 1 0.328649 0.328649 0.99325
4
 1 0.331588 0.331588 0.985694
4
 1 0.339708 0.339708 0.977263
4
 1 0.337033 0.337033 0.983042
4
 1 0.334148 0.334148 0.981276
4
 1 0.336898 0.336898 0.977482
4
 1 0.345847 0.345847 0.971519
4
 1 0.339978 0.339978 0.979846
4
 1 0.343371 0.343371 0.976495
4
 1 0.34236 0.34236 0.970645
4
 1 0.339843 0.339843 0.974304
4
 1 0.346547 0.346547 0.973922
4
 1 0.340667 0.340667 0.98227
4
 0.979311 0.293715 0.293715 1
4
 0.971207 0.285855 0.285855 1
4
 0.979861 0.292634 0.292634 1
4
 0.971643 0.287399 0.287399 1
4
 0.975579 0.288396 0.288396 1
4
 0.98383 0.296601 0.296601 1
4
 0.985987 0.30052 0.30052 1
4
 0.975579 0.291295 0.291295 1
4
 0.967505 0.283501 0.283501 1
4
 0.962412 0.278715 0.278715 1
4
 0.964631 0.278916 0.278916 1
4
 0.971425 0.284484 0.284484 1
4
 0.968212 0.28144 0.28144 1
4
 1 0.303214 0.303214 0.981104
4
 1 0.301065 0.301065 0.980938
4
 1 0.302237 0.302237 0.976158
4
 1 0.305137 0.305137 0.973093
4
 1 0.30587 0.30587 0.975227
4
 1 0.301202 0.301202 0.984028
4
 1 0.300364 0.300364 0.987793
4
 1 0.298897 0.298897 0.991404
4
 1 0.305466 0.305466 0.983256
4
 1 0.306009 0.306009 0.978299
4
 0.955839 0.284339 0.284339 1
4
 0.952732 0.280959 0.280959 1
4
 0.962086 0.286884 0.286884 1
4
 0.960682 0.287723 0.287723 1
4
 0.949313 0.2815 0.2815 1
4
 0.951128 0.281256 0.281256 1
4
 0.955678 0.287276 0.287276 1
4
 0.959065 0.288027 0.288027 1
4
 0.942356 0.274764 0.274764 1
4
 0.946227 0.278154 0.278154 1
4
 0.946067 0.281027 0.281027 1
4
 0.944157 0.274526 0.274526 1
4
 0.952409 0.286793 0.286793 1
4
 0.961328 0.293706 0.293706 1
4
 0.960896 0.295066 0.295066 1
4
 0.957019 0.292091 0.292091 1
4
 0.963274 0.293725 0.293725 1
4
 0.960519 0.290694 0.290694 1
4
 0.947927 0.285161 0.285161 1
4
 0.952302 0.288925 0.288925 1
4
 0.965114 0.298903 0.298903 1
4
 0.969296 0.301641 0.301641 1
4
 0.967502 0.297545 0.297545 1
4
 0.940668 0.261393 0.261393 1
4
 0.935979 0.257149 0.257149 1
4
 0.937398 0.260832 0.260832 1
4
 0.948784 0.266081 0.266081 1
4
 0.94014 0.259747 0.259747 1
4
 0.944585 0.262106 0.262106 1
4
 0.947187 0.266807 0.266807 1
4
 0.941566 0.263467 0.263467 1
4
 0.934352 0.25347 0.25347 1
4
 0.938769 0.255772 0.255772 1
4
 0.936769 0.252975 0.252975 1
4
 0.93257 0.249495 0.249495 1
4
 0.948518 0.264139 0.264139 1
4
 0.955467 0.269139 0.269139 1
4
 0.951131 0.268876 0.268876 1
4
 0.955252 0.271793 0.271793 1
4
 0.957454 0.271989 0.271989 1
4
 0.939876 0.257851 0.257851 1
4
 0.942308 0.257347 0.257347 1
4
 0.946072 0.259846 0.259846 1
4
 0.951239 0.265118 0.265118 1
4
 0.993548 0.293549 0.293549 1
4
 0.991876 0.289966 0.289966 1
4
 0.98904 0.286975 0.286975 1
4
 0.985492 0.286093 0.286093 1
4
 0.988928 0.291042 0.291042 1
4
 0.986156 0.288173 0.288173 1
4
 0.995391 0.293648 0.293648 1
4
 0.997348 0.298963 0.298963 1
4
 0.992432 0.294737 0.294737 1
4
 0.990875 0.287071 0.287071 1
4
 0.994833 0.288894 0.288894 1
4
 0.997518 0.292473 0.292473 1
4
 1 0.298236 0.298236 0.987626
4
 1 0.300231 0.300231 0.979067
4
 1 0.296811 0.296811 0.98624
4
 1 0.295986 0.295986 0.990013
4
 1 0.294671 0.294671 0.9938
4
 1 0.295954 0.295954 0.995029
4
 1 0.31383 0.31383 0.997047
4
 1 0.31496 0.31496 0.998841
4
 1 0.318222 0.318222 0.995146
4
 1 0.316124 0.316124 0.992634
4
 1 0.319079 0.319079 0.990686
4
 0.998298 0.311552 0.311552 1
4
 0.994382 0.307159 0.307159 1
4
 1 0.313237 0.313237 0.99548
4
 0.998075 0.307878 0.307878 1
4
 0.992484 0.312072 0.312072 1
4
 0.99254 0.309626 0.309626 1
4
 0.983166 0.301413 0.301413 1
4
 0.988647 0.305259 0.305259 1
4
 0.983387 0.302983 0.302983 1
4
 0.996449 0.314579 0.314579 1
4
 1 0.321699 0.321699 0.998225
4
 1 0.31897 0.31897 0.999852
4
 0.999586 0.321801 0.321801 1
4
 1 0.316451 0.316451 0.999795
4
 0.992597 0.307711 0.307711 1
4
 1 0.322464 0.322464 0.994477
4
 1 0.325461 0.325461 0.995036
4
 1 0.328373 0.328373 0.987466
4
 1 0.325741 0.325741 0.989464
4
 1 0.320589 0.320589 0.991632
4
 1 0.322978 0.322978 0.991076
4
 1 0.328613 0.328613 0.989631
4
 0.944056 0.257005 0.257005 1
4
 0.936085 0.251031 0.251031 1
4
 0.940617 0.253124 0.253124 1
4
 0.952308 0.262732 0.262732 1
4
 0.955361 0.263563 0.263563 1
4
 0.957509 0.268063 0.268063 1
4
 0.961388 0.270341 0.270341 1
4
 0.961658 0.268721 0.268721 1
4
 0.950866 0.260321 0.260321 1
4
 0.953003 0.264766 0.264766 1
4
 0.944374 0.255583 0.255583 1
4
 0.958102 0.263221 0.263221 1
4
 0.960202 0.266255 0.266255 1
4
 0.952577 0.258989 0.258989 1
4
 0.947402 0.256391 0.256391 1
4
 0.96209 0.272434 0.272434 1
4
 0.9602 0.272998 0.272998 1
4
 1 0.313481 0.313481 0.961093
4
 1 0.311083 0.311083 0.959906
4
 1 0.310588 0.310588 0.9632
4
 1 0.316252 0.316252 0.958614
4
 1 0.310074 0.310074 0.96607
4
 1 0.313863 0.313863 0.966451
4
 1 0.310819 0.310819 0.968189
4
 1 0.315728 0.315728 0.961471
4
 1 0.304776 0.304776 0.967916
4
 1 0.307701 0.307701 0.964877
4
 1 0.305942 0.305942 0.962766
4
 1 0.304292 0.304292 0.971237
4
 1 0.302552 0.302552 0.969112
4
 1 0.297966 0.297966 0.981433
4
 1 0.299209 0.299209 0.975718
4
 1 0.296591 0.296591 0.981157
4
 1 0.30795 0.30795 0.970311
4
 1 0.301266 0.301266 0.965689
4
 1 0.300353 0.300353 0.970527
4
 0.986541 0.299414 0.299414 1
4
 0.990204 0.300116 0.300116 1
4
 0.980082 0.29123 0.29123 1
4
 0.931319 0.232354 0.232354 1
4
 0.928708 0.22968 0.22968 1
4
 0.93651 0.235711 0.235711 1
4
 0.939777 0.236218 0.236218 1
4
 0.930377 0.234292 0.234292 1
4
 0.925532 0.228912 0.228912 1
4
 0.933308 0.234923 0.234923 1
4
 0.924337 0.229519 0.229519 1
4
 0.935564 0.237677 0.237677 1
4
 0.937877 0.240976 0.240976 1
4
 0.935825 0.240625 0.240625 1
4
 0.928602 0.235278 0.235278 1
4
 0.932259 0.238643 0.238643 1
4
 0.926571 0.232209 0.232209 1
4
 0.921746 0.226877 0.226877 1
4
 0.940831 0.241626 0.241626 1
4
 0.943159 0.24093 0.24093 1
4
 0.943212 0.24225 0.24225 1
4
 0.941784 0.23883 0.23883 1
4
 0.941095 0.244623 0.244623 1
4
 0.945545 0.245613 0.245613 1
4
 0.949215 0.249426 0.249426 1
4
 0.94666 0.248851 0.248851 1
4
 0.944589 0.248489 0.248489 1
4
 0.941623 0.247408 0.247408 1
4
 0.935457 0.242255 0.242255 1
4
 0.937771 0.245208 0.245208 1
4
 0.947884 0.244905 0.244905 1
4
 0.946449 0.241448 0.241448 1
4
 0.951617 0.250071 0.250071 1
4
 0.97257 0.291132 0.291132 1
4
 0.983222 0.299549 0.299549 1
4
 0.972843 0.290354 0.290354 1
4
 0.972242 0.292751 0.292751 1
4
 0.977991 0.297315 0.297315 1
4
 0.963655 0.284544 0.284544 1
4
 0.957398 0.279678 0.279678 1
4
 0.96333 0.286126 0.286126 1
4
 0.961115 0.281662 0.281662 1
4
 0.967668 0.285796 0.285796 1
4
 0.967069 0.288156 0.288156 1
4
 0.969737 0.276698 0.276698 1
4
 0.977226 0.280507 0.280507 1
4
 0.97001 0.27504 0.27504 1
4
 0.975308 0.277827 0.277827 1
4
 0.977885 0.282547 0.282547 1
4
 0.966259 0.273102 0.273102 1
4
 0.96409 0.275318 0.275318 1
4
 0.96767 0.277809 0.277809 1
4
 0.984497 0.283236 0.283236 1
4
 0.991989 0.285914 0.285914 1
4
 0.982564 0.28053 0.28053 1
4
 0.98577 0.281548 0.281548 1
4
 0.979039 0.279668 0.279668 1
4
 0.981626 0.284419 0.284419 1
4
 0.999874 0.290389 0.290389 1
4
 0.998639 0.291294 0.291294 1
4
 0.989708 0.283336 0.283336 1
4
 0.996568 0.286326 0.286326 1
4
 0.992268 0.283727 0.283727 1
4
 1 0.293263 0.293263 0.992406
4
 1 0.293213 0.293213 0.988346
4
 1 0.293232 0.293232 0.997434
4
 1 0.29191 0.29191 0.992127
4
 1 0.288831 0.288831 0.999508
4
 1 0.339769 0.339769 0.950525
4
 1 0.329259 0.329259 0.960557
4
 1 0.329521 0.329521 0.963095
4
 1 0.333196 0.333196 0.95921
4
 1 0.337155 0.337155 0.954589
4
 1 0.334018 0.334018 0.95341
4
 1 0.330913 0.330913 0.955071
4
 1 0.337151 0.337151 0.951752
4
 1 0.343657 0.343657 0.948606
4
 1 0.346978 0.346978 0.946053
4
 1 0.343654 0.343654 0.945786
4
 0.952199 0.273204 0.273204 1
4
 0.950382 0.273441 0.273441 1
4
 0.961385 0.280909 0.280909 1
4
 0.956325 0.276167 0.276167 1
4
 0.947718 0.269844 0.269844 1
4
 0.943894 0.266235 0.266235 1
4
 0.953644 0.272535 0.272535 1
4
 0.942094 0.266465 0.266465 1
4
 0.969249 0.268737 0.268737 1
4
 0.96458 0.265628 0.265628 1
4
 0.972521 0.269514 0.269514 1
4
 0.970611 0.266938 0.266938 1
4
 0.962579 0.262407 0.262407 1
4
 0.96599 0.263533 0.263533 1
4
 0.966966 0.268419 0.268419 1
4
 0.969085 0.271513 0.271513 1
4
 0.974378 0.274265 0.274265 1
4
 0.974926 0.272346 0.272346 1
4
 0.977557 0.27526 0.27526 1
4
 0.964417 0.268372 0.268372 1
4
 0.960311 0.262096 0.262096 1
4
 0.956758 0.261048 0.261048 1
4
 0.97181 0.274216 0.274216 1
4
 0.980305 0.278 0.278 1
4
 0.980856 0.276055 0.276055 1
4
 0.976296 0.270522 0.270522 1
4
 0.983393 0.276436 0.276436 1
4
 0.986047 0.279394 0.279394 1
4
 0.96974 0.264519 0.264519 1
4
 0.980197 0.271334 0.271334 1
4
 0.956813 0.256424 0.256424 1
4
 0.961715 0.260029 0.260029 1
4
 0.954237 0.255833 0.255833 1
4
 0.954773 0.257883 0.257883 1
4
 0.960204 0.257523 0.257523 1
4
 0.952739 0.253367 0.253367 1
4
 0.950707 0.254809 0.254809 1
4
 0.947191 0.251684 0.251684 1
4
 0.947722 0.253701 0.253701 1
4
 0.946074 0.254275 0.254275 1
4
 0.940354 0.248361 0.248361 1
4
 0.942574 0.251156 0.251156 1
4
 1 0.296967 0.296967 0.967153
4
 1 0.293452 0.293452 0.97118
4
 1 0.292601 0.292601 0.968456
4
 1 0.290397 0.290397 0.982203
4
 1 0.28982 0.28982 0.979999
4
 1 0.287034 0.287034 0.988067
4
 1 0.285196 0.285196 0.986902
4
 1 0.287135 0.287135 0.981927
4
 1 0.295893 0.295893 0.973638
4
 1 0.297937 0.297937 0.972272
4
 1 0.295304 0.295304 0.971453
4
 1 0.294997 0.294997 0.978516
4
 1 0.29239 0.29239 0.977691
4
 1 0.292416 0.292416 0.983971
4
 1 0.28958 0.28958 0.98574
4
 1 0.294436 0.294436 0.982591
4
 1 0.290962 0.290962 0.972762
4
 1 0.289106 0.289106 0.977416
4
 0.978266 0.294059 0.294059 1
4
 0.992375 0.304082 0.304082 1
4
 1 0.310726 0.310726 0.997494
4
 1 0.318475 0.318475 0.989129
4
 1 0.320468 0.320468 0.983314
4
 0.962844 0.280221 0.280221 1
4
 0.996284 0.303332 0.303332 1
4
 1 0.288781 0.288781 0.995419
4
 1 0.288343 0.288343 0.993576
4
 1 0.289029 0.289029 0.989844
4
 0.999034 0.285025 0.285025 1
4
 0.991601 0.279806 0.279806 1
4
 0.992882 0.282343 0.282343 1
4
 1 0.285547 0.285547 0.995362
4
 0.99344 0.2799 0.2799 1
4
 0.996625 0.280785 0.280785 1
4
 1 0.283188 0.283188 0.998553
4
 1 0.284394 0.284394 0.990455
4
 1 0.283862 0.283862 0.994803
4
 0.965872 0.302867 0.302867 1
4
 0.960788 0.297259 0.297259 1
4
 0.96886 0.303037 0.303037 1
4
 0.968967 0.310482 0.310482 1
4
 0.969947 0.309458 0.309458 1
4
 0.97645 0.315808 0.315808 1
4
 0.966088 0.306482 0.306482 1
4
 0.960948 0.302678 0.302678 1
4
 0.961704 0.305163 0.305163 1
4
 0.96192 0.30168 0.30168 1
4
 0.961975 0.299815 0.299815 1
4
 0.973549 0.311739 0.311739 1
4
 0.970057 0.305642 0.305642 1
4
 0.97273 0.309057 0.309057 1
4
 0.953852 0.297274 0.297274 1
4
 0.954602 0.299714 0.299714 1
4
 0.950004 0.293787 0.293787 1
4
 0.957555 0.300383 0.300383 1
4
 0.952942 0.294442 0.294442 1
4
 0.956857 0.296094 0.296094 1
4
 0.948619 0.288809 0.288809 1
4
 0.952515 0.290429 0.290429 1
4
 0.952996 0.292621 0.292621 1
4
 0.928237 0.236871 0.236871 1
4
 0.922574 0.230485 0.230485 1
4
 0.925894 0.236261 0.236261 1
4
 0.92954 0.23964 0.23964 1
4
 0.934197 0.243189 0.243189 1
4
 0.997068 0.301267 0.301267 1
4
 0.992711 0.29641 0.29641 1
4
 0.992153 0.297009 0.297009 1
4
 1 0.314654 0.314654 0.97501
4
 1 0.313387 0.313387 0.973095
4
 1 0.309798 0.309798 0.979784
4
 1 0.321248 0.321248 0.968681
4
 1 0.319755 0.319755 0.968191
4
 1 0.316038 0.316038 0.970858
4
 1 0.288268 0.288268 0.974675
4
 1 0.284494 0.284494 0.9843
4
 1 0.280225 0.280225 0.994969
4
 1 0.282045 0.282045 0.99363
4
 0.983604 0.319648 0.319648 1
4
 0.982777 0.316898 0.316898 1
4
 0.979251 0.315398 0.315398 1
4
 0.975739 0.30923 0.30923 1
4
 0.985049 0.28934 0.28934 1
4
 0.93074 0.245468 0.245468 1
4
 0.936401 0.249643 0.249643 1
4
 0.928392 0.241189 0.241189 1
4
 0.931839 0.242562 0.242562 1
4
 0.933043 0.244761 0.244761 1
4
 0.935246 0.247515 0.247515 1
4
 0.938718 0.248923 0.248923 1
4
 1 0.334281 0.334281 0.978305
4
 1 0.328896 0.328896 0.984089
4
 1 0.331902 0.331902 0.97792
4
 1 0.339528 0.339528 0.970863
4
 1 0.343654 0.343654 0.962396
4
 1 0.340314 0.340314 0.966782
4
 1 0.334634 0.334634 0.974139
4
 1 0.337813 0.337813 0.970426
4
 0.97246 0.294276 0.294276 1
4
 0.970114 0.293791 0.293791 1
4
 0.965332 0.290606 0.290606 1
4
 0.975851 0.29837 0.29837 1
4
 0.971476 0.297721 0.297721 1
4
 0.968699 0.294649 0.294649 1
4
 0.966688 0.294493 0.294493 1
4
 1 0.323847 0.323847 0.986634
4
 1 0.323833 0.323833 0.983481
4
 1 0.323464 0.323464 0.981384
4
 1 0.326246 0.326246 0.982929
4
 1 0.329242 0.329242 0.979898
4
 1 0.32586 0.32586 0.977699
4
 1 0.329228 0.329228 0.976767
4
 1 0.325618 0.325618 0.972661
4
 1 0.328853 0.328853 0.974685
4
 1 0.329501 0.329501 0.971079
4
 1 0.329249 0.329249 0.968737
4
 1 0.323717 0.323717 0.964122
4
 1 0.325488 0.325488 0.96716
4
 1 0.326863 0.326863 0.959101
4
 1 0.318467 0.318467 0.966289
4
 1 0.322463 0.322463 0.960447
4
 1 0.325344 0.325344 0.958616
4
 1 0.32938 0.32938 0.965803
4
 0.959984 0.275689 0.275689 1
4
 0.965769 0.278385 0.278385 1
4
 1 0.335408 0.335408 0.970044
4
 1 0.332906 0.332906 0.970153
4
 1 0.348445 0.348445 0.954645
4
 1 0.341918 0.341918 0.961963
4
 1 0.348321 0.348321 0.952289
4
 1 0.34286 0.34286 0.958081
4
 1 0.346453 0.346453 0.952556
4
 1 0.35152 0.35152 0.949353
4
 1 0.336069 0.336069 0.966456
4
 1 0.339528 0.339528 0.962449
4
 1 0.349511 0.349511 0.947276
4
 1 0.333307 0.333307 0.964233
4
 1 0.337267 0.337267 0.959588
4
 1 0.336996 0.336996 0.962556
4
 1 0.33701 0.33701 0.957274
4
 1 0.340739 0.340739 0.955609
4
 1 0.344309 0.344309 0.950098
4
 1 0.344031 0.344031 0.953037
4
 1 0.31116 0.31116 0.975612
4
 1 0.311713 0.311713 0.970693
4
 1 0.316636 0.316636 0.963958
4
 1 0.318714 0.318714 0.963093
4
 1 0.308143 0.308143 0.977366
4
 0.972572 0.283942 0.283942 1
4
 0.995843 0.27711 0.27711 1
4
 1 0.279701 0.279701 0.999337
4
 0.98921 0.275643 0.275643 1
4
 0.987322 0.277266 0.277266 1
4
 0.997185 0.279286 0.279286 1
4
 1 0.320608 0.320608 0.958131
4
 1 0.331587 0.331587 0.951965
4
 1 0.337837 0.337837 0.948658
4
 1 0.325596 0.325596 0.955445
1
 1

